NAME : U-E-n51-k5.524612.tour
COMMENT : Cost = 0_524612
COMMENT : Found by LKH [Keld Helsgaun] Wed Sep 13 14:28:57 2017
TYPE : TOUR
DIMENSION : 55
TOUR_SECTION
1
7
15
26
25
44
8
24
49
28
52
13
38
45
16
46
34
40
11
50
6
47
55
12
3
30
22
17
51
35
31
10
39
53
9
27
32
29
4
37
36
21
23
2
33
54
48
5
18
43
20
41
42
14
19
-1
EOF
